(set-logic QF_LIA)
(set-info :ran/ran2.smt2)
(set-info :smt-lib-version 2.0)
(declare-fun x1 () Int)
(declare-fun x2 () Int)
(declare-fun x3 () Int)
(assert (<= (+ (* (- 6) x1) (* (- 8) x2) (* (- 2) x3) ) (- 2168)))
(assert (<= (+ (* 3 x1) (* (- 10) x2) (* 9 x3) ) 2512))
(assert (<= (+ (* 4 x1) (* (- 2) x2) (* 10 x3) ) 675))
(assert (<= (+ (* (- 7) x1) (* 8 x2) (* 5 x3) ) (- 3026)))
(assert (<= (+ (* 5 x1) (* 10 x2) (* 4 x3) ) 3311))
(assert (<= (+ (* (- 8) x1) (* 4 x2) (* 7 x3) ) 3441))
(assert (<= (+ (* 1 x1) (* 0 x2) (* 0 x3) ) 3981))
(assert (<= (+ (* (- 1) x1) (* 0 x2) (* 0 x3) ) 3981))
(assert (<= (+ (* 0 x1) (* 1 x2) (* 0 x3) ) 3981))
(assert (<= (+ (* 0 x1) (* (- 1) x2) (* 0 x3) ) 3981))
(assert (<= (+ (* 0 x1) (* 0 x2) (* 1 x3) ) 3981))
(assert (<= (+ (* 0 x1) (* 0 x2) (* (- 1) x3) ) 3981))
